20	5
0	3	2	1	3
1	4	8	18	20	14
2	2	20	6
3	5	20	17	19	16	14
4	3	5	18	11
5	3	13	17	12
6	1	9
7	3	16	12	19
8	2	5	16
9	3	14	8	4
10	3	13	7	17
11	1	10
12	1	21
13	1	21
14	1	21
15	1	21
16	1	21
17	1	21
18	1	21
19	1	21
20	1	21
21	0
0	0	0	0	0	0	0
1	10	0	0	0	2	0
2	7	1	2	2	4	0
3	9	1	0	5	0	4
4	9	0	0	0	3	2
5	8	3	0	0	5	2
6	8	0	4	2	0	0
7	7	0	0	0	0	5
8	5	0	0	2	2	1
9	1	0	4	0	4	0
10	1	0	5	3	0	0
11	9	0	0	5	0	0
12	2	5	0	2	0	5
13	10	0	4	0	0	3
14	10	0	4	0	3	0
15	6	5	3	5	3	4
16	1	2	0	0	1	4
17	1	0	4	0	2	0
18	7	0	4	0	4	4
19	1	3	4	0	0	5
20	2	0	1	3	0	2
21	0	0	0	0	0	0
4	6	6	5	7
